s td 15 2 15
b 1 1 14
b 2 7 14
b 3 14
b 4 2
b 5 3
b 6 4 5
b 7 4 8
b 8 8 9
b 9 9 15
b 10 10 15
b 11 11 12
b 12 11 15
b 13 15
b 14 6
b 15 13
1 3
1 4
1 5
1 6
1 14
1 15
2 3
6 7
7 8
8 9
9 13
10 13
11 12
12 13
